** Project 01 - Aerospace Mounting Bracket
** Stage 2: Hole-region mesh convergence - Level 2 (medium, hole_size=0.20mm)
** All physics identical to Level 1 - only hole-region mesh resolution changes.

*INCLUDE, INPUT=mesh_hole_clean.inp
*INCLUDE, INPUT=nsets_hole.inp
*INCLUDE, INPUT=tip_facial_surface_hole.inp

*NODE
168723, 60.0, 20.0, 2.0
*NSET, NSET=REF_TIP
168723

*MATERIAL, NAME=AL7075T6
*ELASTIC
71700., 0.33

*SOLID SECTION, ELSET=plate, MATERIAL=AL7075T6

*BOUNDARY
root, 1, 3

*COUPLING, REF NODE=168723, SURFACE=TIP_FACE, CONSTRAINT NAME=TIP_COUPLING
*DISTRIBUTING
1,3

*STEP
*STATIC

*CLOAD
168723, 3, -235.44

*NODE FILE
U
*EL FILE
S
*END STEP
